120
150
58
43
57
51
42
58
48
57
51
42
56
44
51
52
58
53
44
42
43
53
55
49
54
54
51
60
46
58
40
52
42
54
55
48
41
44
58
58
51
56
54
54
54
47
40
56
47
58
52
55
53
45
48
58
41
57
50
40
51
42
42
55
51
48
51
60
45
56
51
54
49
55
53
51
44
42
59
59
45
47
44
54
40
53
54
43
48
51
49
50
42
59
58
47
55
43
55
58
52
48
41
55
54
40
54
55
56
51
57
58
50
40
49
40
41
51
58
44
48
43
